c random clauses
p cnf 15 16
-15 -11 -7 -5 -4 1 9 10 0
-14 -13 -10 -9 -3 6 11 15 0
-14 -10 -9 -6 -4 -3 -1 5 0
-14 -9 2 3 10 12 13 15 0
-14 -7 -4 9 10 11 13 15 0
-14 -6 -3 -2 5 7 9 15 0
-13 -12 -7 -5 -2 3 10 15 0
-13 -12 -6 -5 2 3 7 15 0
-13 -11 -7 -5 -3 6 9 15 0
-13 -9 -7 -4 -2 -1 12 14 0
-12 -11 -10 -9 -8 -1 2 5 0
-11 -7 -3 -1 5 8 9 15 0
-10 -9 -5 -4 2 6 7 8 0
-10 -4 -1 6 7 8 12 13 0
-8 -7 1 3 9 10 11 12 0
-8 -5 -3 -2 6 7 10 12 0
